assets/logs/13_10x10_clingo/13_10x10_clingo.solution.log

-----------------------------------------
| 86|  0| 57| 35| 82| 39| 53| 43| 10|  0|
-----------------------------------------
| 59| 78| 84| 81| 55|  0| 12|  0| 51| 45|
-----------------------------------------
|  0|  7| 33| 80| 37| 36| 41| 47|  2|  8|
-----------------------------------------
| 76| 61| 83|  9| 79| 14| 40|  6|  0| 49|
-----------------------------------------
| 85| 31|  5| 16| 38|  0| 34|  0| 42|  4|
-----------------------------------------
| 63| 74| 87| 77| 11| 18| 60|  0| 32| 26|
-----------------------------------------
| 29| 71| 13|  3| 21| 75| 22| 28| 62| 44|
-----------------------------------------
| 72| 65| 27| 73| 20| 50| 23| 58| 24| 30|
-----------------------------------------
| 69| 15|  1| 68| 25| 19| 54| 64| 46|  0|
-----------------------------------------
|  0| 70| 67| 17| 52| 66| 48|  0| 56|  0|
-----------------------------------------

| n = 10 | k = 10 | coverage = 96, 96.0%
 Time 300.001
 Name 13_10x10_clingo

