assets/logs/13_10x10_clingo/13_10x10_clingo.log
clingo version 5.4.0
Reading from ...s/logs/13_10x10_clingo/knights_tour.lp ...
Solving...
Answer: 1
occ(1,5,6) occ(1,3,1) occ(1,9,10) occ(1,1,10) occ(1,4,9) occ(1,2,8) occ(1,6,8) occ(1,5,8) occ(1,2,6) occ(1,10,8) occ(2,9,3) occ(3,3,9) coverage(6)
Optimization: -6
Answer: 2
occ(1,5,6) occ(1,3,1) occ(1,9,10) occ(1,1,10) occ(1,4,9) occ(1,2,8) occ(1,6,8) occ(1,5,8) occ(1,2,6) occ(1,10,8) occ(2,9,3) occ(3,3,9) coverage(7) occ(6,8,6) occ(4,10,5)
Optimization: -7
Answer: 3
occ(1,5,6) occ(1,3,1) occ(1,9,10) occ(1,1,10) occ(1,4,9) occ(1,2,8) occ(1,6,8) occ(1,5,8) occ(1,2,6) occ(1,10,8) occ(2,9,3) occ(3,3,9) coverage(42) occ(27,1,3) occ(31,1,7) occ(35,1,9) occ(41,1,4) occ(51,1,5) occ(29,2,5) occ(37,2,7) occ(43,2,2) occ(47,2,4) occ(53,2,3) occ(19,3,3) occ(25,3,2) occ(33,3,8) occ(39,3,5) occ(49,3,6) occ(57,3,4) occ(77,3,10) occ(5,4,7) occ(16,4,5) occ(23,4,4) occ(45,4,3) occ(55,4,2) occ(75,4,8) occ(7,5,5) occ(17,5,4) occ(21,5,2) occ(59,5,3) occ(79,5,9) occ(10,6,2) occ(14,6,6) occ(18,6,4) occ(28,6,3) occ(61,6,1) occ(73,6,9) occ(89,6,7) occ(99,6,10) occ(9,7,6) occ(12,7,4) occ(15,7,5) occ(20,7,2) occ(26,7,1) occ(63,7,3) occ(81,7,10) occ(91,7,9) occ(4,8,1) occ(8,8,3) occ(11,8,8) occ(22,8,4) occ(30,8,2) occ(36,8,7) occ(65,8,5) occ(71,8,10) occ(87,8,6) occ(97,8,9) occ(13,9,6) occ(24,9,2) occ(34,9,5) occ(40,9,4) occ(67,9,7) occ(83,9,9) occ(93,9,8) occ(6,10,2) occ(32,10,3) occ(38,10,6) occ(69,10,9) occ(85,10,7) occ(95,10,10)
Optimization: -42
Answer: 4
occ(1,5,6) occ(1,3,1) occ(1,9,10) occ(1,1,10) occ(1,4,9) occ(1,2,8) occ(1,6,8) occ(1,5,8) occ(1,2,6) occ(1,10,8) occ(2,9,3) occ(3,3,9) coverage(44) occ(27,1,3) occ(31,1,7) occ(35,1,9) occ(41,1,4) occ(51,1,5) occ(29,2,5) occ(37,2,7) occ(43,2,2) occ(47,2,4) occ(53,2,3) occ(19,3,3) occ(25,3,2) occ(33,3,8) occ(39,3,5) occ(49,3,6) occ(57,3,4) occ(77,3,10) occ(5,4,7) occ(16,4,5) occ(23,4,4) occ(45,4,3) occ(55,4,2) occ(75,4,8) occ(7,5,5) occ(17,5,4) occ(18,5,7) occ(21,5,2) occ(59,5,3) occ(79,5,9) occ(6,6,2) occ(14,6,4) occ(20,6,5) occ(28,6,3) occ(61,6,1) occ(73,6,9) occ(89,6,7) occ(99,6,10) occ(4,7,4) occ(9,7,6) occ(12,7,2) occ(15,7,5) occ(26,7,1) occ(63,7,3) occ(81,7,10) occ(91,7,9) occ(8,8,3) occ(11,8,8) occ(22,8,4) occ(30,8,2) occ(36,8,7) occ(65,8,5) occ(71,8,10) occ(87,8,6) occ(97,8,9) occ(10,9,1) occ(13,9,6) occ(24,9,2) occ(34,9,5) occ(40,9,4) occ(67,9,7) occ(83,9,9) occ(93,9,8) occ(32,10,3) occ(38,10,6) occ(42,10,2) occ(69,10,9) occ(85,10,7) occ(95,10,10)
Optimization: -44
Answer: 5
occ(1,5,6) occ(1,3,1) occ(1,9,10) occ(1,1,10) occ(1,4,9) occ(1,2,8) occ(1,6,8) occ(1,5,8) occ(1,2,6) occ(1,10,8) occ(2,9,3) occ(3,3,9) coverage(46) occ(27,1,3) occ(31,1,7) occ(35,1,9) occ(41,1,4) occ(51,1,5) occ(29,2,5) occ(37,2,7) occ(43,2,2) occ(47,2,4) occ(53,2,3) occ(19,3,3) occ(25,3,2) occ(33,3,8) occ(39,3,5) occ(49,3,6) occ(57,3,4) occ(77,3,10) occ(5,4,7) occ(16,4,5) occ(23,4,4) occ(45,4,3) occ(55,4,2) occ(75,4,8) occ(7,5,5) occ(17,5,4) occ(18,5,7) occ(21,5,2) occ(59,5,3) occ(79,5,9) occ(6,6,2) occ(14,6,4) occ(20,6,5) occ(28,6,3) occ(61,6,1) occ(73,6,9) occ(89,6,7) occ(99,6,10) occ(4,7,4) occ(9,7,6) occ(12,7,2) occ(15,7,5) occ(26,7,1) occ(63,7,3) occ(81,7,10) occ(91,7,9) occ(8,8,3) occ(11,8,8) occ(22,8,4) occ(30,8,2) occ(36,8,7) occ(44,8,1) occ(65,8,5) occ(71,8,10) occ(87,8,6) occ(97,8,9) occ(10,9,1) occ(13,9,6) occ(24,9,2) occ(34,9,5) occ(40,9,4) occ(67,9,7) occ(83,9,9) occ(93,9,8) occ(32,10,3) occ(38,10,6) occ(42,10,2) occ(69,10,9) occ(85,10,7) occ(95,10,10)
Optimization: -46
Answer: 6
occ(1,5,6) occ(1,3,1) occ(1,9,10) occ(1,1,10) occ(1,4,9) occ(1,2,8) occ(1,6,8) occ(1,5,8) occ(1,2,6) occ(1,10,8) occ(2,9,3) occ(3,3,9) coverage(50) occ(15,1,5) occ(22,1,3) occ(63,1,9) occ(9,2,7) occ(13,2,3) occ(18,2,4) occ(19,2,2) occ(24,2,1) occ(49,2,9) occ(53,2,5) occ(11,3,5) occ(16,3,6) occ(17,3,4) occ(20,3,2) occ(26,3,3) occ(51,3,7) occ(61,3,10) occ(65,3,8) occ(7,4,8) occ(14,4,4) occ(21,4,3) occ(28,4,1) occ(33,4,7) occ(34,4,2) occ(47,4,10) occ(55,4,6) occ(69,4,5) occ(5,5,10) occ(30,5,3) occ(31,5,5) occ(36,5,4) occ(59,5,9) occ(67,5,7) occ(85,5,2) occ(12,6,3) occ(23,6,2) occ(32,6,1) occ(35,6,6) occ(45,6,9) occ(48,6,5) occ(57,6,7) occ(71,6,4) occ(4,7,2) occ(25,7,4) occ(29,7,6) occ(38,7,5) occ(43,7,7) occ(83,7,1) occ(87,7,3) occ(10,8,2) occ(37,8,5) occ(40,8,7) occ(41,8,9) occ(46,8,6) occ(73,8,3) occ(79,8,4) occ(89,8,1) occ(6,9,1) occ(27,9,5) occ(39,9,7) occ(42,9,9) occ(77,9,6) occ(81,9,2) occ(93,9,4) occ(97,9,8) occ(8,10,3) occ(44,10,7) occ(75,10,4) occ(91,10,2) occ(95,10,6) occ(99,10,10)
Optimization: -50
Answer: 7
occ(1,5,6) occ(1,3,1) occ(1,9,10) occ(1,1,10) occ(1,4,9) occ(1,2,8) occ(1,6,8) occ(1,5,8) occ(1,2,6) occ(1,10,8) occ(2,9,3) occ(3,3,9) coverage(54) occ(15,1,5) occ(22,1,3) occ(63,1,9) occ(9,2,7) occ(13,2,3) occ(18,2,4) occ(19,2,2) occ(24,2,1) occ(49,2,9) occ(53,2,5) occ(11,3,5) occ(16,3,6) occ(17,3,4) occ(20,3,2) occ(26,3,3) occ(51,3,7) occ(61,3,10) occ(65,3,8) occ(7,4,8) occ(14,4,4) occ(21,4,3) occ(28,4,1) occ(33,4,7) occ(34,4,2) occ(47,4,10) occ(55,4,6) occ(69,4,5) occ(5,5,10) occ(30,5,3) occ(31,5,5) occ(36,5,4) occ(59,5,9) occ(67,5,7) occ(12,6,3) occ(23,6,2) occ(32,6,1) occ(35,6,6) occ(45,6,9) occ(48,6,5) occ(57,6,7) occ(71,6,4) occ(4,7,2) occ(25,7,4) occ(29,7,6) occ(38,7,5) occ(43,7,7) occ(95,7,3) occ(99,7,1) occ(10,8,2) occ(37,8,5) occ(40,8,7) occ(41,8,9) occ(46,8,6) occ(50,8,4) occ(73,8,3) occ(79,8,8) occ(83,8,10) occ(93,8,1) occ(6,9,1) occ(27,9,5) occ(39,9,7) occ(42,9,9) occ(77,9,6) occ(85,9,8) occ(89,9,4) occ(97,9,2) occ(8,10,3) occ(44,10,7) occ(52,10,5) occ(75,10,4) occ(81,10,9) occ(87,10,6) occ(91,10,2)
Optimization: -54
Answer: 8
occ(1,5,6) occ(1,3,1) occ(1,9,10) occ(1,1,10) occ(1,4,9) occ(1,2,8) occ(1,6,8) occ(1,5,8) occ(1,2,6) occ(1,10,8) occ(2,9,3) occ(3,3,9) coverage(56) occ(15,1,5) occ(22,1,3) occ(63,1,9) occ(9,2,7) occ(13,2,3) occ(18,2,4) occ(19,2,2) occ(24,2,1) occ(49,2,9) occ(53,2,5) occ(11,3,5) occ(16,3,6) occ(17,3,4) occ(20,3,2) occ(26,3,3) occ(51,3,7) occ(61,3,10) occ(65,3,8) occ(7,4,8) occ(14,4,4) occ(21,4,3) occ(28,4,1) occ(33,4,7) occ(34,4,2) occ(47,4,10) occ(55,4,6) occ(69,4,5) occ(5,5,10) occ(30,5,3) occ(31,5,5) occ(36,5,4) occ(59,5,9) occ(67,5,7) occ(12,6,3) occ(23,6,2) occ(32,6,1) occ(35,6,6) occ(45,6,9) occ(48,6,5) occ(57,6,7) occ(71,6,4) occ(4,7,2) occ(25,7,4) occ(29,7,6) occ(38,7,5) occ(43,7,7) occ(54,7,1) occ(95,7,3) occ(10,8,2) occ(37,8,5) occ(40,8,7) occ(41,8,9) occ(46,8,6) occ(50,8,4) occ(73,8,3) occ(79,8,8) occ(83,8,10) occ(93,8,1) occ(6,9,1) occ(27,9,5) occ(39,9,7) occ(42,9,9) occ(52,9,2) occ(77,9,6) occ(85,9,8) occ(89,9,4) occ(8,10,3) occ(44,10,7) occ(75,10,4) occ(81,10,9) occ(87,10,6) occ(91,10,2)
Optimization: -56
Answer: 9
occ(1,5,6) occ(1,3,1) occ(1,9,10) occ(1,1,10) occ(1,4,9) occ(1,2,8) occ(1,6,8) occ(1,5,8) occ(1,2,6) occ(1,10,8) occ(2,9,3) occ(3,3,9) coverage(58) occ(15,1,5) occ(22,1,3) occ(63,1,9) occ(9,2,7) occ(13,2,3) occ(18,2,4) occ(19,2,2) occ(24,2,1) occ(49,2,9) occ(53,2,5) occ(11,3,5) occ(16,3,6) occ(17,3,4) occ(20,3,2) occ(26,3,3) occ(51,3,7) occ(61,3,10) occ(65,3,8) occ(7,4,8) occ(14,4,4) occ(21,4,3) occ(28,4,1) occ(33,4,7) occ(34,4,2) occ(47,4,10) occ(55,4,6) occ(69,4,5) occ(5,5,10) occ(30,5,3) occ(31,5,5) occ(36,5,4) occ(56,5,2) occ(59,5,9) occ(67,5,7) occ(12,6,3) occ(23,6,2) occ(32,6,1) occ(35,6,6) occ(45,6,9) occ(48,6,5) occ(57,6,7) occ(71,6,4) occ(4,7,2) occ(25,7,4) occ(29,7,6) occ(38,7,5) occ(43,7,7) occ(54,7,1) occ(95,7,3) occ(10,8,2) occ(37,8,5) occ(40,8,7) occ(41,8,9) occ(46,8,6) occ(50,8,4) occ(73,8,3) occ(79,8,8) occ(83,8,10) occ(93,8,1) occ(6,9,1) occ(27,9,5) occ(39,9,7) occ(42,9,9) occ(52,9,2) occ(77,9,6) occ(85,9,8) occ(89,9,4) occ(8,10,3) occ(44,10,7) occ(75,10,4) occ(81,10,9) occ(87,10,6) occ(91,10,2)
Optimization: -58
Answer: 10
occ(1,5,6) occ(1,3,1) occ(1,9,10) occ(1,1,10) occ(1,4,9) occ(1,2,8) occ(1,6,8) occ(1,5,8) occ(1,2,6) occ(1,10,8) occ(2,9,3) occ(3,3,9) coverage(71) occ(11,1,9) occ(14,1,3) occ(22,1,1) occ(70,1,5) occ(5,2,7) occ(12,2,1) occ(16,2,5) occ(19,2,2) occ(24,2,3) occ(66,2,4) occ(9,3,10) occ(10,3,3) occ(13,3,8) occ(17,3,4) occ(20,3,2) occ(26,3,5) occ(68,3,6) occ(7,4,8) occ(15,4,6) occ(18,4,4) occ(21,4,1) occ(28,4,7) occ(39,4,2) occ(44,4,5) occ(64,4,3) occ(8,5,2) occ(25,5,4) occ(30,5,9) occ(42,5,7) occ(43,5,1) occ(62,5,5) occ(6,6,4) occ(23,6,2) occ(29,6,7) occ(34,6,10) occ(37,6,1) occ(40,6,9) occ(41,6,3) occ(46,6,6) occ(27,7,5) occ(32,7,8) occ(33,7,4) occ(38,7,7) occ(45,7,2) occ(52,7,10) occ(60,7,6) occ(63,7,3) occ(4,8,5) occ(31,8,6) occ(35,8,2) occ(36,8,9) occ(48,8,7) occ(53,8,3) occ(54,8,8) occ(59,8,4) occ(65,8,1) occ(47,9,1) occ(50,9,9) occ(51,9,5) occ(57,9,6) occ(58,9,7) occ(61,9,2) occ(69,9,4) occ(49,10,3) occ(55,10,4) occ(56,10,9) occ(67,10,2)
Optimization: -71
Answer: 11
occ(1,5,6) occ(1,3,1) occ(1,9,10) occ(1,1,10) occ(1,4,9) occ(1,2,8) occ(1,6,8) occ(1,5,8) occ(1,2,6) occ(1,10,8) occ(2,9,3) occ(3,3,9) coverage(75) occ(11,1,9) occ(14,1,3) occ(22,1,1) occ(70,1,7) occ(5,2,7) occ(12,2,1) occ(16,2,5) occ(19,2,2) occ(24,2,3) occ(66,2,4) occ(72,2,9) occ(9,3,10) occ(10,3,3) occ(13,3,8) occ(17,3,4) occ(20,3,2) occ(26,3,5) occ(68,3,6) occ(7,4,8) occ(15,4,6) occ(18,4,4) occ(21,4,1) occ(28,4,7) occ(39,4,2) occ(44,4,5) occ(64,4,3) occ(74,4,10) occ(8,5,2) occ(25,5,4) occ(30,5,9) occ(42,5,7) occ(43,5,1) occ(62,5,5) occ(6,6,4) occ(23,6,2) occ(29,6,7) occ(34,6,10) occ(37,6,1) occ(40,6,9) occ(41,6,3) occ(46,6,6) occ(27,7,5) occ(32,7,8) occ(33,7,4) occ(38,7,7) occ(45,7,2) occ(52,7,10) occ(60,7,6) occ(63,7,3) occ(4,8,5) occ(31,8,6) occ(35,8,2) occ(36,8,9) occ(48,8,7) occ(53,8,3) occ(54,8,8) occ(59,8,4) occ(65,8,1) occ(47,9,1) occ(50,9,9) occ(51,9,5) occ(57,9,6) occ(58,9,7) occ(61,9,2) occ(69,9,4) occ(73,9,8) occ(49,10,3) occ(55,10,4) occ(56,10,9) occ(67,10,2) occ(71,10,6)
Optimization: -75
Answer: 12
occ(1,5,6) occ(1,3,1) occ(1,9,10) occ(1,1,10) occ(1,4,9) occ(1,2,8) occ(1,6,8) occ(1,5,8) occ(1,2,6) occ(1,10,8) occ(2,9,3) occ(3,3,9) coverage(77) occ(7,1,5) occ(18,1,3) occ(24,1,4) occ(40,1,6) occ(50,1,1) occ(62,1,7) occ(5,2,7) occ(16,2,5) occ(20,2,1) occ(26,2,2) occ(38,2,4) occ(48,2,3) occ(60,2,9) occ(75,2,10) occ(9,3,4) occ(17,3,10) occ(22,3,3) occ(42,3,5) occ(52,3,2) occ(58,3,7) occ(64,3,6) occ(73,3,8) occ(11,4,6) occ(14,4,4) occ(15,4,8) occ(28,4,1) occ(36,4,3) occ(46,4,2) occ(56,4,5) occ(12,5,2) occ(19,5,9) occ(44,5,4) occ(54,5,3) occ(66,5,5) occ(71,5,7) occ(76,5,10) occ(13,6,7) occ(23,6,10) occ(29,6,9) occ(30,6,2) occ(34,6,4) occ(68,6,3) occ(6,7,3) occ(10,7,1) occ(21,7,8) occ(27,7,7) occ(37,7,10) occ(57,7,2) occ(65,7,4) occ(69,7,6) occ(70,7,5) occ(74,7,9) occ(4,8,1) occ(25,8,9) occ(31,8,10) occ(32,8,3) occ(35,8,8) occ(43,8,6) occ(49,8,5) occ(55,8,4) occ(63,8,2) occ(72,8,7) occ(8,9,2) occ(39,9,9) occ(45,9,4) occ(51,9,7) occ(59,9,1) occ(67,9,5) occ(33,10,9) occ(41,10,7) occ(47,10,6) occ(53,10,5) occ(61,10,3)
Optimization: -77
Answer: 13
occ(1,5,6) occ(1,3,1) occ(1,9,10) occ(1,1,10) occ(1,4,9) occ(1,2,8) occ(1,6,8) occ(1,5,8) occ(1,2,6) occ(1,10,8) occ(2,9,3) occ(3,3,9) coverage(78) occ(7,1,5) occ(18,1,3) occ(24,1,4) occ(40,1,6) occ(50,1,1) occ(62,1,7) occ(77,1,8) occ(5,2,7) occ(16,2,5) occ(20,2,1) occ(26,2,2) occ(38,2,4) occ(48,2,3) occ(60,2,9) occ(75,2,10) occ(9,3,4) occ(17,3,10) occ(22,3,3) occ(42,3,5) occ(52,3,2) occ(58,3,7) occ(64,3,6) occ(73,3,8) occ(11,4,6) occ(14,4,4) occ(15,4,8) occ(28,4,1) occ(36,4,3) occ(46,4,2) occ(56,4,5) occ(12,5,2) occ(19,5,9) occ(44,5,4) occ(54,5,3) occ(66,5,5) occ(71,5,7) occ(76,5,10) occ(13,6,7) occ(23,6,10) occ(29,6,9) occ(30,6,2) occ(34,6,4) occ(68,6,3) occ(6,7,3) occ(10,7,1) occ(21,7,8) occ(27,7,7) occ(37,7,10) occ(57,7,2) occ(65,7,4) occ(69,7,6) occ(70,7,5) occ(74,7,9) occ(4,8,1) occ(25,8,9) occ(31,8,10) occ(32,8,3) occ(35,8,8) occ(43,8,6) occ(49,8,5) occ(55,8,4) occ(63,8,2) occ(72,8,7) occ(8,9,2) occ(39,9,9) occ(45,9,4) occ(51,9,7) occ(59,9,1) occ(67,9,5) occ(33,10,9) occ(41,10,7) occ(47,10,6) occ(53,10,5) occ(61,10,3)
Optimization: -78
Answer: 14
occ(1,5,6) occ(1,3,1) occ(1,9,10) occ(1,1,10) occ(1,4,9) occ(1,2,8) occ(1,6,8) occ(1,5,8) occ(1,2,6) occ(1,10,8) occ(2,9,3) occ(3,3,9) coverage(80) occ(5,1,8) occ(14,1,7) occ(20,1,2) occ(24,1,6) occ(42,1,5) occ(46,1,9) occ(67,1,3) occ(79,1,1) occ(16,2,5) occ(22,2,4) occ(44,2,7) occ(65,2,1) occ(71,2,2) occ(7,3,7) occ(12,3,8) occ(18,3,3) occ(26,3,5) occ(40,3,6) occ(48,3,10) occ(69,3,4) occ(77,3,2) occ(9,4,5) occ(10,4,6) occ(28,4,7) occ(38,4,4) occ(63,4,2) occ(73,4,3) occ(78,4,8) occ(8,5,4) occ(11,5,3) occ(15,5,7) occ(30,5,5) occ(36,5,2) occ(50,5,9) occ(75,5,1) occ(76,5,10) occ(6,6,6) occ(13,6,5) occ(17,6,9) occ(34,6,4) occ(52,6,7) occ(55,6,2) occ(61,6,1) occ(19,7,7) occ(32,7,6) occ(37,7,2) occ(49,7,8) occ(53,7,4) occ(54,7,5) occ(58,7,1) occ(59,7,3) occ(68,7,10) occ(74,7,9) occ(4,8,5) occ(21,8,9) occ(31,8,2) occ(39,8,4) occ(47,8,10) occ(51,8,6) occ(56,8,3) occ(57,8,1) occ(66,8,8) occ(72,8,7) occ(25,9,8) occ(29,9,4) occ(35,9,1) occ(43,9,7) occ(60,9,2) occ(64,9,6) occ(70,9,9) occ(23,10,10) occ(27,10,6) occ(33,10,3) occ(41,10,5) occ(45,10,9) occ(62,10,4)
Optimization: -80
Answer: 15
occ(1,5,6) occ(1,3,1) occ(1,9,10) occ(1,1,10) occ(1,4,9) occ(1,2,8) occ(1,6,8) occ(1,5,8) occ(1,2,6) occ(1,10,8) occ(2,9,3) occ(3,3,9) coverage(81) occ(5,1,8) occ(11,1,7) occ(14,1,9) occ(24,1,4) occ(42,1,5) occ(46,1,1) occ(69,1,2) occ(9,2,5) occ(13,2,9) occ(26,2,2) occ(44,2,3) occ(65,2,1) occ(71,2,4) occ(7,3,7) occ(12,3,8) occ(16,3,10) occ(22,3,5) occ(28,3,4) occ(40,3,6) occ(48,3,2) occ(67,3,3) occ(10,4,6) occ(15,4,10) occ(20,4,7) occ(38,4,4) occ(63,4,2) occ(73,4,5) occ(78,4,8) occ(8,5,4) occ(18,5,9) occ(30,5,5) occ(36,5,2) occ(50,5,1) occ(75,5,3) occ(76,5,10) occ(79,5,7) occ(6,6,6) occ(17,6,9) occ(34,6,4) occ(52,6,3) occ(55,6,2) occ(61,6,1) occ(77,6,5) occ(80,6,7) occ(19,7,7) occ(32,7,6) occ(37,7,2) occ(49,7,8) occ(53,7,4) occ(54,7,5) occ(58,7,1) occ(59,7,3) occ(68,7,10) occ(74,7,9) occ(4,8,5) occ(21,8,9) occ(31,8,2) occ(39,8,4) occ(47,8,10) occ(51,8,6) occ(56,8,3) occ(57,8,1) occ(66,8,8) occ(72,8,7) occ(25,9,8) occ(29,9,4) occ(35,9,1) occ(43,9,7) occ(60,9,2) occ(64,9,6) occ(70,9,9) occ(23,10,10) occ(27,10,6) occ(33,10,3) occ(41,10,5) occ(45,10,9) occ(62,10,4)
Optimization: -81
Answer: 16
occ(1,5,6) occ(1,3,1) occ(1,9,10) occ(1,1,10) occ(1,4,9) occ(1,2,8) occ(1,6,8) occ(1,5,8) occ(1,2,6) occ(1,10,8) occ(2,9,3) occ(3,3,9) coverage(83) occ(5,1,8) occ(11,1,7) occ(14,1,9) occ(24,1,4) occ(67,1,3) occ(82,1,5) occ(9,2,5) occ(13,2,9) occ(26,2,2) occ(38,2,4) occ(65,2,1) occ(80,2,7) occ(7,3,7) occ(12,3,8) occ(16,3,10) occ(22,3,5) occ(28,3,4) occ(40,3,6) occ(54,3,3) occ(69,3,2) occ(10,4,6) occ(15,4,10) occ(20,4,7) occ(36,4,3) occ(42,4,4) occ(48,4,5) occ(52,4,1) occ(63,4,2) occ(78,4,8) occ(8,5,4) occ(18,5,9) occ(30,5,5) occ(46,5,7) occ(50,5,3) occ(56,5,2) occ(71,5,1) occ(76,5,10) occ(6,6,6) occ(17,6,9) occ(34,6,4) occ(44,6,5) occ(55,6,2) occ(61,6,1) occ(73,6,3) occ(19,7,7) occ(32,7,6) occ(37,7,2) occ(49,7,8) occ(53,7,4) occ(58,7,1) occ(59,7,3) occ(68,7,10) occ(74,7,9) occ(75,7,5) occ(4,8,5) occ(21,8,9) occ(31,8,2) occ(39,8,4) occ(47,8,10) occ(51,8,6) occ(57,8,1) occ(66,8,8) occ(72,8,7) occ(77,8,3) occ(25,9,8) occ(29,9,4) occ(35,9,1) occ(43,9,7) occ(60,9,2) occ(64,9,6) occ(70,9,9) occ(79,9,5) occ(23,10,10) occ(27,10,6) occ(33,10,3) occ(41,10,5) occ(45,10,9) occ(62,10,4) occ(81,10,7)
Optimization: -83
Answer: 17
occ(1,5,6) occ(1,3,1) occ(1,9,10) occ(1,1,10) occ(1,4,9) occ(1,2,8) occ(1,6,8) occ(1,5,8) occ(1,2,6) occ(1,10,8) occ(2,9,3) occ(3,3,9) coverage(84) occ(15,1,5) occ(24,1,6) occ(30,1,3) occ(54,1,7) occ(64,1,8) occ(82,1,9) occ(13,2,7) occ(17,2,3) occ(26,2,4) occ(34,2,2) occ(52,2,5) occ(56,2,9) occ(62,2,10) occ(22,3,5) occ(28,3,2) occ(32,3,4) occ(50,3,3) occ(60,3,8) occ(66,3,7) occ(80,3,10) occ(11,4,6) occ(19,4,2) occ(36,4,3) occ(37,4,7) occ(48,4,1) occ(58,4,10) occ(68,4,5) occ(78,4,8) occ(5,5,10) occ(20,5,4) occ(31,5,1) occ(35,5,5) occ(39,5,9) occ(40,5,2) occ(67,5,3) occ(74,5,7) occ(9,6,7) occ(21,6,1) occ(33,6,3) occ(38,6,4) occ(46,6,2) occ(69,6,5) occ(70,6,6) occ(76,6,9) occ(7,7,9) occ(10,7,3) occ(18,7,5) occ(29,7,2) occ(41,7,10) occ(42,7,1) occ(55,7,7) occ(65,7,4) occ(72,7,8) occ(77,7,6) occ(4,8,5) occ(12,8,1) occ(23,8,2) occ(44,8,3) occ(45,8,7) occ(53,8,9) occ(59,8,8) occ(71,8,6) occ(75,8,4) occ(83,8,10) occ(8,9,2) occ(16,9,4) occ(27,9,1) occ(43,9,9) occ(49,9,8) occ(57,9,6) occ(63,9,5) occ(79,9,7) occ(6,10,4) occ(14,10,2) occ(25,10,3) occ(47,10,6) occ(51,10,10) occ(61,10,7) occ(73,10,5) occ(81,10,9)
Optimization: -84
Answer: 18
occ(1,5,6) occ(1,3,1) occ(1,9,10) occ(1,1,10) occ(1,4,9) occ(1,2,8) occ(1,6,8) occ(1,5,8) occ(1,2,6) occ(1,10,8) occ(2,9,3) occ(3,3,9) coverage(85) occ(5,1,8) occ(9,1,6) occ(33,1,2) occ(63,1,7) occ(74,1,9) occ(78,1,5) occ(79,1,1) occ(83,1,3) occ(84,1,4) occ(35,2,4) occ(36,2,9) occ(65,2,5) occ(76,2,7) occ(77,2,3) occ(82,2,2) occ(7,3,7) occ(11,3,5) occ(31,3,3) occ(61,3,8) occ(64,3,6) occ(72,3,10) occ(80,3,4) occ(81,3,2) occ(13,4,3) occ(20,4,1) occ(34,4,10) occ(37,4,5) occ(38,4,8) occ(62,4,4) occ(67,4,6) occ(68,4,7) occ(75,4,2) occ(15,5,1) occ(22,5,3) occ(29,5,2) occ(40,5,10) occ(59,5,7) occ(66,5,5) occ(69,5,4) occ(70,5,9) occ(8,6,3) occ(18,6,2) occ(26,6,6) occ(32,6,9) occ(39,6,4) occ(44,6,7) occ(60,6,5) occ(73,6,1) occ(10,7,5) occ(17,7,2) occ(24,7,4) occ(27,7,1) occ(28,7,8) occ(42,7,9) occ(53,7,10) occ(57,7,6) occ(58,7,7) occ(71,7,3) occ(6,8,2) occ(16,8,1) occ(19,8,4) occ(30,8,10) occ(41,8,3) occ(46,8,6) occ(49,8,7) occ(52,8,9) occ(55,8,8) occ(12,9,4) occ(21,9,6) occ(25,9,2) occ(43,9,1) occ(47,9,5) occ(50,9,7) occ(51,9,9) occ(56,9,8) occ(4,10,1) occ(14,10,2) occ(23,10,4) occ(45,10,3) occ(48,10,5) occ(54,10,10)
Optimization: -85
Answer: 19
occ(1,5,6) occ(1,3,1) occ(1,9,10) occ(1,1,10) occ(1,4,9) occ(1,2,8) occ(1,6,8) occ(1,5,8) occ(1,2,6) occ(1,10,8) occ(2,9,3) occ(3,3,9) coverage(86) occ(5,1,8) occ(10,1,3) occ(16,1,2) occ(46,1,7) occ(54,1,9) occ(78,1,5) occ(85,1,4) occ(12,2,1) occ(18,2,4) occ(44,2,5) occ(48,2,9) occ(80,2,7) occ(83,2,2) occ(7,3,7) occ(8,3,2) occ(14,3,3) occ(20,3,6) occ(39,3,5) occ(52,3,8) occ(56,3,10) occ(76,3,4) occ(9,4,5) occ(22,4,4) occ(33,4,3) occ(37,4,7) occ(42,4,6) occ(50,4,10) occ(74,4,2) occ(81,4,1) occ(82,4,8) occ(6,5,3) occ(11,5,7) occ(24,5,2) occ(31,5,1) occ(35,5,5) occ(41,5,4) occ(58,5,9) occ(84,5,10) occ(26,6,4) occ(29,6,3) occ(32,6,9) occ(40,6,7) occ(59,6,10) occ(63,6,6) occ(68,6,5) occ(72,6,1) occ(79,6,2) occ(4,7,2) occ(13,7,6) occ(27,7,1) occ(30,7,7) occ(43,7,5) occ(51,7,9) occ(60,7,10) occ(61,7,8) occ(65,7,4) occ(70,7,3) occ(19,8,4) occ(28,8,5) occ(34,8,10) occ(38,8,8) occ(49,8,7) occ(57,8,9) occ(66,8,6) occ(67,8,2) occ(73,8,3) occ(77,8,1) occ(15,9,7) occ(21,9,6) occ(25,9,2) occ(45,9,4) occ(53,9,8) occ(62,9,9) occ(71,9,1) occ(17,10,5) occ(23,10,4) occ(36,10,9) occ(47,10,6) occ(55,10,10) occ(64,10,7) occ(69,10,3) occ(75,10,2)
Optimization: -86
Answer: 20
occ(1,5,6) occ(1,3,1) occ(1,9,10) occ(1,1,10) occ(1,4,9) occ(1,2,8) occ(1,6,8) occ(1,5,8) occ(1,2,6) occ(1,10,8) occ(2,9,3) occ(3,3,9) coverage(87) occ(16,1,2) occ(22,1,7) occ(23,1,1) occ(49,1,4) occ(53,1,6) occ(57,1,8) occ(63,1,9) occ(82,1,3) occ(86,1,5) occ(18,2,4) occ(24,2,9) occ(25,2,3) occ(47,2,2) occ(59,2,10) occ(80,2,5) occ(14,3,3) occ(20,3,6) occ(21,3,2) occ(51,3,5) occ(55,3,7) occ(61,3,8) occ(65,3,10) occ(84,3,4) occ(7,4,8) occ(11,4,6) occ(12,4,1) occ(26,4,10) occ(27,4,2) occ(45,4,3) occ(78,4,4) occ(81,4,7) occ(85,4,5) occ(5,5,10) occ(19,5,3) occ(29,5,4) occ(46,5,1) occ(67,5,9) occ(75,5,7) occ(76,5,2) occ(79,5,5) occ(9,6,7) occ(10,6,2) occ(13,6,5) occ(17,6,1) occ(28,6,9) occ(43,6,4) occ(48,6,3) occ(83,6,6) occ(8,7,4) occ(15,7,3) occ(31,7,5) occ(35,7,9) occ(44,7,2) occ(54,7,7) occ(69,7,10) occ(73,7,8) occ(74,7,1) occ(77,7,6) occ(6,8,2) occ(30,8,10) occ(33,8,7) occ(34,8,8) occ(41,8,5) occ(50,8,4) occ(56,8,9) occ(62,8,6) occ(68,8,3) occ(37,9,8) occ(38,9,5) occ(42,9,1) occ(52,9,6) occ(58,9,7) occ(64,9,4) occ(71,9,9) occ(72,9,2) occ(4,10,1) occ(32,10,9) occ(36,10,7) occ(39,10,6) occ(40,10,3) occ(60,10,5) occ(66,10,2) occ(70,10,4)
Optimization: -87
Answer: 21
occ(1,5,6) occ(1,3,1) occ(1,9,10) occ(1,1,10) occ(1,4,9) occ(1,2,8) occ(1,6,8) occ(1,5,8) occ(1,2,6) occ(1,10,8) occ(2,9,3) occ(3,3,9) coverage(88) occ(26,1,9) occ(65,1,4) occ(69,1,6) occ(70,1,1) occ(73,1,2) occ(74,1,5) occ(78,1,3) occ(82,1,7) occ(24,2,7) occ(44,2,9) occ(63,2,2) occ(71,2,4) occ(72,2,3) occ(80,2,5) occ(28,3,10) occ(37,3,8) occ(46,3,7) occ(67,3,5) occ(68,3,2) occ(75,3,3) occ(76,3,4) occ(84,3,6) occ(5,4,7) occ(22,4,8) occ(39,4,6) occ(42,4,10) occ(43,4,2) occ(48,4,5) occ(61,4,1) occ(64,4,3) occ(86,4,4) occ(20,5,10) occ(30,5,9) occ(35,5,7) occ(41,5,4) occ(50,5,3) occ(55,5,5) occ(66,5,1) occ(77,5,2) occ(7,6,6) occ(8,6,7) occ(11,6,10) occ(33,6,5) occ(40,6,9) occ(45,6,1) occ(53,6,3) occ(59,6,2) occ(62,6,4) occ(9,7,8) occ(10,7,5) occ(18,7,9) occ(31,7,7) occ(32,7,10) occ(52,7,2) occ(57,7,4) occ(60,7,6) occ(79,7,1) occ(83,7,3) occ(6,8,6) occ(13,8,9) occ(16,8,7) occ(19,8,10) occ(25,8,5) occ(38,8,8) occ(47,8,2) occ(51,8,4) occ(56,8,3) occ(85,8,1) occ(12,9,4) occ(17,9,8) occ(23,9,7) occ(29,9,6) occ(34,9,9) occ(54,9,1) occ(58,9,5) occ(81,9,2) occ(4,10,5) occ(14,10,6) occ(15,10,10) occ(21,10,9) occ(27,10,4) occ(36,10,7) occ(49,10,3) occ(87,10,2)
Optimization: -88
Answer: 22
occ(1,5,6) occ(1,3,1) occ(1,9,10) occ(1,1,10) occ(1,4,9) occ(1,2,8) occ(1,6,8) occ(1,5,8) occ(1,2,6) occ(1,10,8) occ(2,9,3) occ(3,3,9) coverage(89) occ(11,1,9) occ(36,1,4) occ(40,1,6) occ(44,1,8) occ(54,1,7) occ(58,1,3) occ(83,1,5) occ(87,1,1) occ(13,2,7) occ(46,2,10) occ(52,2,9) occ(56,2,5) occ(60,2,1) occ(79,2,2) occ(82,2,4) occ(85,2,3) occ(8,3,2) occ(9,3,10) occ(34,3,3) occ(37,3,6) occ(38,3,5) occ(42,3,7) occ(48,3,8) occ(81,3,4) occ(7,4,8) occ(10,4,4) occ(15,4,6) occ(41,4,7) occ(50,4,10) occ(62,4,2) occ(77,4,1) occ(80,4,5) occ(84,4,3) occ(5,5,10) occ(6,5,3) occ(17,5,4) occ(32,5,2) occ(35,5,7) occ(39,5,5) occ(43,5,9) occ(86,5,1) occ(12,6,5) occ(19,6,6) occ(27,6,10) occ(33,6,9) occ(61,6,7) occ(64,6,1) occ(75,6,2) occ(78,6,4) occ(88,6,3) occ(4,7,4) occ(14,7,3) occ(22,7,5) occ(23,7,7) occ(29,7,8) occ(30,7,1) occ(45,7,10) occ(63,7,9) occ(72,7,2) occ(76,7,6) occ(21,8,5) occ(24,8,7) occ(25,8,9) occ(28,8,3) occ(31,8,10) occ(51,8,6) occ(59,8,8) occ(66,8,2) occ(73,8,1) occ(74,8,4) occ(16,9,2) occ(20,9,6) occ(26,9,5) occ(47,9,9) occ(55,9,7) occ(65,9,8) occ(69,9,4) occ(70,9,1) occ(18,10,4) occ(49,10,7) occ(53,10,5) occ(57,10,9) occ(67,10,6) occ(68,10,3) occ(71,10,2)
Optimization: -89
*** Info : (clingo): INTERRUPTED by signal!
SATISFIABLE

TIME LIMIT   : 1
Models       : 22+
  Optimum    : unknown
Optimization : -89
Calls        : 1
Time         : 300.000s (Solving: 298.58s 1st Model: 0.00s Unsat: 0.00s)
CPU Time     : 300.001s
